&CONTROL
  calculation = 'vc-relax',
  pseudo_dir = '/p/home/rwexler/PSPs/Glycine',
/
&SYSTEM
  degauss = 0.005,
  dftd3_version = 6,
  ecutrho = 320,
  ecutwfc = 40,
  ibrav = 0,
  input_dft = 'pbe',
  nat = 80,
  ntyp = 4,
  smearing = 'gauss',
  vdw_corr = 'dft-d3',
/
&ELECTRONS
/
&IONS
/
&CELL
/
ATOMIC_SPECIES
  C  12.0107 C.UPF
  H  1.0079 H.UPF
  N  14.0067 N.UPF
  O  15.9994 O.UPF
ATOMIC_POSITIONS (crystal)
O      0.510070026         0.955349982         0.998019993
O      0.989929974         0.044650000         0.498019993
O      0.489929974         0.455350012         0.501980007
O      0.010070026         0.544650018         0.001980000
O      0.622169971         0.176050007         0.995230019
O      0.877830029         0.823949993         0.495229989
O      0.377830029         0.676050007         0.504769981
O      0.122169971         0.323949993         0.004770000
O      0.391339988         0.105430000         0.237760007
O      0.108660012         0.894569993         0.737760007
O      0.608659983         0.605430007         0.262239993
O      0.891340017         0.394569993         0.762239993
O      0.797749996         0.273059994         0.387450010
O      0.702250004         0.726940036         0.887449980
O      0.202250004         0.773059964         0.112549990
O      0.297749996         0.226940006         0.612550020
N      0.918470025         0.156049997         0.173629999
N      0.581529975         0.843950033         0.673629999
N      0.081529975         0.656049967         0.326370001
N      0.418470025         0.343950003         0.826370001
N      0.392630011         0.934870005         0.369729996
N      0.107369989         0.065130003         0.869729996
N      0.607370019         0.434870005         0.130270004
N      0.892629981         0.565129995         0.630270004
C      0.628660023         0.057069998         0.034720000
C      0.871339977         0.942929983         0.534720004
C      0.371339977         0.557070017         0.465279996
C      0.128660023         0.442930013         0.965279996
C      0.810029984         0.026170000         0.130209997
C      0.689970016         0.973829985         0.630209982
C      0.189970016         0.526170015         0.369790018
C      0.310029984         0.473829985         0.869790018
C      0.709789991         0.940180004         0.227779999
C      0.790210009         0.059820000         0.727779984
C      0.290210009         0.440180004         0.272220016
C      0.209789991         0.559819996         0.772220016
C      0.483680010         0.000490000         0.279469997
C      0.016319990         0.999509990         0.779469967
C      0.516319990         0.500490010         0.220530003
C      0.983680010         0.499509990         0.720530033
H      0.810970008         0.205219999         0.232989997
H      0.689029992         0.794780016         0.732990026
H      0.189029992         0.705219984         0.267010003
H      0.310970008         0.294780016         0.767009974
H      0.949509978         0.221890002         0.105750002
H      0.550490022         0.778110027         0.605750024
H      0.050490022         0.721889973         0.394250005
H      0.449509978         0.278109998         0.894249976
H      0.085160017         0.136930004         0.208949998
H      0.414839983         0.863070011         0.708949983
H      0.914839983         0.636929989         0.291050017
H      0.585160017         0.363070011         0.791050017
H      0.249620005         0.977850020         0.408670008
H      0.250379980         0.022150001         0.908670008
H      0.750379980         0.477849990         0.091329992
H      0.749620020         0.522149980         0.591329992
H      0.466349989         0.850979984         0.406340003
H      0.033650011         0.149020001         0.906340003
H      0.533650041         0.350979984         0.093659997
H      0.966349959         0.649020016         0.593659997
H      0.954400003         0.968370020         0.088189997
H      0.545599997         0.031629998         0.588190019
H      0.045599997         0.468369991         0.411810011
H      0.454400003         0.531629980         0.911809981
H      0.670639992         0.839650035         0.190880001
H      0.829360008         0.160349995         0.690880001
H      0.329360008         0.339650005         0.309119999
H      0.170639992         0.660349965         0.809119999
H      0.841069996         0.934080005         0.296820015
H      0.658930004         0.065920003         0.796820045
H      0.158930004         0.434080005         0.203179985
H      0.341069996         0.565919995         0.703179955
H      0.832899988         0.194240004         0.433820009
H      0.667100012         0.805760026         0.933820009
H      0.167100012         0.694239974         0.066179991
H      0.332899988         0.305759996         0.566179991
H      0.682250023         0.330619991         0.424890012
H      0.817749977         0.669380009         0.924890041
H      0.317749977         0.830619991         0.075109988
H      0.182250023         0.169380009         0.575109959
K_POINTS automatic
  2 1 1 0 0 0
CELL_PARAMETERS (angstrom)
        5.5830001831         0.0000000000         0.0000000000
        0.0000000000         9.7379999161         0.0000000000
        0.0000000000         0.0000000000        11.6929998398
